NAME : XML100_2265_17
DIMENSION : 101
NB_CLUSTERS : 3
CLUSTERING_ALG : KMeans
CLUSTERING_PARAMS : k(2)
CLUSTERS
1 0
2 8 13 14 15 16 18 23 25 32 37 41 44 46 47 49 58 64 68 74 75 92 95 97
3 1 2 3 4 5 6 7 9 10 11 12 17 19 20 21 22 24 26 27 28 29 30 31 33 34 35 36 38 39 40 42 43 45 48 50 51 52 53 54 55 56 57 59 60 61 62 63 65 66 67 69 70 71 72 73 76 77 78 79 80 81 82 83 84 85 86 87 88 89 90 91 93 94 96 98 99 100
EOF